treewidth/data/contiki_dhcpc_handle_dhcp.gr
p tw 276 313
1 2
2 113
3 14
3 225
4 5
5 6
6 7
7 8
8 9
9 10
10 11
11 12
12 13
13 15
14 25
15 16
15 17
16 196
17 18
18 19
19 20
19 30
20 21
21 22
21 30
22 23
23 24
24 26
24 30
25 36
25 272
26 27
27 28
28 29
29 49
30 31
31 32
32 33
33 34
34 35
35 37
36 47
37 38
37 10
38 39
39 40
40 41
41 42
41 136
42 43
43 44
44 45
45 46
46 48
47 58
47 13
48 49
48 262
49 50
50 51
51 52
52 53
53 54
54 55
55 56
56 57
57 59
58 69
59 60
60 61
61 62
62 63
63 64
64 65
65 66
66 67
67 68
68 70
69 80
69 95
70 71
71 72
72 73
73 74
74 75
74 105
75 76
76 77
76 79
77 78
78 82
79 81
80 91
81 82
82 83
83 84
84 85
85 86
86 87
87 88
88 89
89 90
90 92
91 102
91 132
92 93
93 94
94 95
95 96
96 97
96 103
97 98
98 99
99 100
100 101
101 103
101 72
102 114
103 104
104 196
105 106
106 107
107 108
108 109
109 110
110 111
111 112
112 115
113 200
114 125
114 161
115 116
116 117
117 118
118 119
119 120
120 121
121 122
122 123
123 124
124 126
124 135
125 193
126 127
127 128
128 129
129 130
130 131
131 132
132 133
133 134
133 122
134 196
135 137
136 147
137 138
138 139
139 140
140 141
141 142
141 144
142 143
143 146
144 145
145 146
146 148
147 158
148 149
149 150
150 151
151 152
152 153
153 154
154 155
155 156
156 157
157 159
158 169
159 160
160 161
161 162
162 163
162 164
163 196
164 165
165 166
166 167
166 175
167 168
168 170
168 175
169 180
170 171
171 172
172 173
172 175
173 174
174 49
175 176
176 177
177 178
178 179
179 181
180 191
181 182
182 183
182 157
183 184
184 185
185 186
186 187
186 122
187 188
188 189
189 190
190 192
191 198
192 136
193 194
194 195
195 196
196 197
198 199
199 201
200 211
201 202
202 203
202 213
203 204
204 205
205 206
206 207
207 208
208 209
209 210
210 212
210 199
211 222
212 196
213 214
214 215
215 216
216 217
217 218
218 219
219 220
220 221
221 223
222 233
223 224
224 225
225 226
226 227
226 228
227 196
228 229
229 230
230 231
230 242
231 232
232 234
232 242
233 244
233 136
234 235
235 236
236 237
236 242
237 238
238 239
239 240
240 241
241 258
242 243
243 245
244 255
245 246
246 247
247 248
248 249
249 250
249 221
250 251
251 252
252 253
253 254
253 199
254 256
255 266
255 209
256 257
257 199
258 259
259 260
260 261
261 262
262 263
263 264
264 265
264 275
265 267
266 3
267 268
268 269
269 270
270 271
271 272
272 273
273 274
273 262
274 196
275 276
276 4
