treewidth/data/contiki_dhcpc_handle_dhcp.td
c width = 6, time = 0.333796
s td 254 7 276
b 1 37 41 48 49 136 262
b 2 3 37 49 69 136 196 262
b 3 3 13 37 49 69 196 262
b 4 3 13 37 69 196 262 272
b 5 10 13 37 262 264 272
b 6 3 13 25 47 69 272
b 7 196 262 272 273
b 8 13 21 30 37 49 196
b 9 13 15 19 21 30 196
b 10 21 24 30 49
b 11 49 69 122 136 157 166 196
b 12 49 69 96 101 122 196
b 13 49 69 74 96 101 122
b 14 49 72 74 101
b 15 69 74 95 96
b 16 96 101 103 196
b 17 69 114 122 124 157 166 196
b 18 69 114 122 124 132 196
b 19 69 91 114 132
b 20 122 132 133 196
b 21 114 157 161 162 166 196
b 22 49 122 136 157 166 182
b 23 49 166 168 172 175 182
b 24 122 136 182 186
b 25 3 136 196 199 221 230 262
b 26 3 136 196 199 209 221
b 27 199 202 209 221
b 28 196 199 209 210
b 29 3 136 209 255
b 30 3 196 221 225 226 230
b 31 199 221 230 232 242 262
b 32 232 236 242 262
b 33 199 221 242 249
b 34 74 76 82
b 35 74 82 95
b 36 124 141 146
b 37 124 146 157
b 38 199 249 253
b 39 13 10 11
b 40 13 11 12
b 41 19 15 17
b 42 19 17 18
b 43 21 19 20
b 44 24 21 22
b 45 24 22 23
b 46 25 3 14
b 47 37 30 31
b 48 37 31 32
b 49 37 32 33
b 50 37 33 34
b 51 37 34 35
b 52 41 37 38
b 53 41 38 39
b 54 41 39 40
b 55 47 25 36
b 56 48 41 42
b 57 48 42 43
b 58 48 43 44
b 59 48 44 45
b 60 48 45 46
b 61 49 24 26
b 62 49 26 27
b 63 49 27 28
b 64 49 28 29
b 65 49 172 173
b 66 49 173 174
b 67 69 47 58
b 68 72 49 50
b 69 72 50 51
b 70 72 51 52
b 71 72 52 53
b 72 72 53 54
b 73 72 54 55
b 74 72 55 56
b 75 72 56 57
b 76 72 57 59
b 77 72 59 60
b 78 72 60 61
b 79 72 61 62
b 80 72 62 63
b 81 72 63 64
b 82 72 64 65
b 83 72 65 66
b 84 72 66 67
b 85 72 67 68
b 86 72 68 70
b 87 72 70 71
b 88 74 72 73
b 89 76 74 75
b 90 82 76 77
b 91 82 77 78
b 92 82 76 79
b 93 82 79 81
b 94 91 69 80
b 95 95 82 83
b 96 95 83 84
b 97 95 84 85
b 98 95 85 86
b 99 95 86 87
b 100 95 87 88
b 101 95 88 89
b 102 95 89 90
b 103 95 90 92
b 104 95 92 93
b 105 95 93 94
b 106 101 96 97
b 107 101 97 98
b 108 101 98 99
b 109 101 99 100
b 110 114 91 102
b 111 122 74 105
b 112 122 105 106
b 113 122 106 107
b 114 122 107 108
b 115 122 108 109
b 116 122 109 110
b 117 122 110 111
b 118 122 111 112
b 119 122 112 115
b 120 122 115 116
b 121 122 116 117
b 122 122 117 118
b 123 122 118 119
b 124 122 119 120
b 125 122 120 121
b 126 124 122 123
b 127 132 124 126
b 128 132 126 127
b 129 132 127 128
b 130 132 128 129
b 131 132 129 130
b 132 132 130 131
b 133 136 186 187
b 134 136 187 188
b 135 136 188 189
b 136 136 189 190
b 137 136 190 192
b 138 141 124 135
b 139 141 135 137
b 140 141 137 138
b 141 141 138 139
b 142 141 139 140
b 143 146 141 142
b 144 146 142 143
b 145 146 141 144
b 146 146 144 145
b 147 157 146 148
b 148 157 148 149
b 149 157 149 150
b 150 157 150 151
b 151 157 151 152
b 152 157 152 153
b 153 157 153 154
b 154 157 154 155
b 155 157 155 156
b 156 161 157 159
b 157 161 159 160
b 158 166 162 164
b 159 166 164 165
b 160 168 166 167
b 161 172 168 170
b 162 172 170 171
b 163 182 175 176
b 164 182 176 177
b 165 182 177 178
b 166 182 178 179
b 167 182 179 181
b 168 186 182 183
b 169 186 183 184
b 170 186 184 185
b 171 196 15 16
b 172 196 103 104
b 173 196 133 134
b 174 196 162 163
b 175 196 114 125
b 176 196 125 193
b 177 196 193 194
b 178 196 194 195
b 179 199 136 147
b 180 199 147 158
b 181 199 158 169
b 182 199 169 180
b 183 199 180 191
b 184 199 191 198
b 185 199 253 254
b 186 199 254 256
b 187 199 256 257
b 188 202 199 201
b 189 209 202 203
b 190 209 203 204
b 191 209 204 205
b 192 209 205 206
b 193 209 206 207
b 194 209 207 208
b 195 210 196 212
b 196 221 202 213
b 197 221 213 214
b 198 221 214 215
b 199 221 215 216
b 200 221 216 217
b 201 221 217 218
b 202 221 218 219
b 203 221 219 220
b 204 225 221 223
b 205 225 223 224
b 206 226 196 227
b 207 230 226 228
b 208 230 228 229
b 209 232 230 231
b 210 236 232 234
b 211 236 234 235
b 212 249 242 243
b 213 249 243 245
b 214 249 245 246
b 215 249 246 247
b 216 249 247 248
b 217 253 249 250
b 218 253 250 251
b 219 253 251 252
b 220 255 136 233
b 221 255 233 244
b 222 255 3 266
b 223 262 236 237
b 224 262 237 238
b 225 262 238 239
b 226 262 239 240
b 227 262 240 241
b 228 262 241 258
b 229 262 258 259
b 230 262 259 260
b 231 262 260 261
b 232 264 262 263
b 233 264 10 9
b 234 264 9 8
b 235 264 8 7
b 236 264 7 6
b 237 264 6 5
b 238 264 5 4
b 239 264 4 276
b 240 264 276 275
b 241 272 264 265
b 242 272 265 267
b 243 272 267 268
b 244 272 268 269
b 245 272 269 270
b 246 272 270 271
b 247 273 196 274
b 248 196 197
b 249 233 222
b 250 222 211
b 251 211 200
b 252 200 113
b 253 113 2
b 254 2 1
4 5
4 6
4 7
3 4
8 9
8 10
3 8
2 3
13 14
13 15
12 13
12 16
11 12
18 19
18 20
17 18
17 21
11 17
22 23
22 24
11 22
2 11
26 27
26 28
26 29
25 26
25 30
31 32
31 33
25 31
2 25
1 2
35 34
15 35
37 36
17 37
33 38
5 39
39 40
9 41
41 42
9 43
10 44
44 45
6 46
8 47
47 48
48 49
49 50
50 51
1 52
52 53
53 54
6 55
1 56
56 57
57 58
58 59
59 60
10 61
61 62
62 63
63 64
23 65
65 66
6 67
14 68
68 69
69 70
70 71
71 72
72 73
73 74
74 75
75 76
76 77
77 78
78 79
79 80
80 81
81 82
82 83
83 84
84 85
85 86
86 87
14 88
34 89
34 90
90 91
34 92
92 93
19 94
35 95
95 96
96 97
97 98
98 99
99 100
100 101
101 102
102 103
103 104
104 105
12 106
106 107
107 108
108 109
19 110
13 111
111 112
112 113
113 114
114 115
115 116
116 117
117 118
118 119
119 120
120 121
121 122
122 123
123 124
124 125
17 126
18 127
127 128
128 129
129 130
130 131
131 132
24 133
133 134
134 135
135 136
136 137
36 138
138 139
139 140
140 141
141 142
36 143
143 144
36 145
145 146
37 147
147 148
148 149
149 150
150 151
151 152
152 153
153 154
154 155
21 156
156 157
21 158
158 159
23 160
23 161
161 162
23 163
163 164
164 165
165 166
166 167
24 168
168 169
169 170
9 171
16 172
20 173
21 174
17 175
175 176
176 177
177 178
25 179
179 180
180 181
181 182
182 183
183 184
38 185
185 186
186 187
27 188
27 189
189 190
190 191
191 192
192 193
193 194
28 195
27 196
196 197
197 198
198 199
199 200
200 201
201 202
202 203
30 204
204 205
30 206
30 207
207 208
31 209
32 210
210 211
33 212
212 213
213 214
214 215
215 216
38 217
217 218
218 219
29 220
220 221
29 222
32 223
223 224
224 225
225 226
226 227
227 228
228 229
229 230
230 231
5 232
5 233
233 234
234 235
235 236
236 237
237 238
238 239
239 240
5 241
241 242
242 243
243 244
244 245
245 246
7 247
2 248
220 249
249 250
250 251
251 252
252 253
253 254
